20 64 
1 5 1
1 6 1
1 7 1
1 8 1
1 9 1
1 10 1
1 12 1
1 14 1
1 16 1
1 17 1
1 18 1
1 19 1
1 20 1
2 5 1
2 6 1
2 9 1
2 11 1
2 12 1
2 20 1
3 5 1
3 6 1
3 7 1
3 13 1
3 16 1
4 5 1
4 7 1
4 8 1
4 11 1
4 15 1
4 19 1
5 6 1
5 7 1
5 8 1
5 9 1
5 10 1
5 12 1
5 13 1
5 16 1
5 17 1
6 8 1
6 9 1
6 10 1
6 12 1
6 17 1
7 10 1
7 16 1
8 14 1
8 15 1
8 17 1
8 20 1
9 11 1
9 13 1
9 14 1
9 15 1
9 19 1
10 11 1
10 20 1
11 13 1
11 19 1
12 14 1
12 18 1
13 18 1
14 15 1
14 18 1
